language ESSENCE' 1.0

letting fixed be 
[
    [0,8,0,0,9,0,0,3,0],
    [0,3,0,0,0,0,0,6,9],
    [9,0,2,0,6,3,1,5,8],
    [0,2,0,8,0,4,5,9,0],
    [8,5,1,9,0,7,0,4,6],
    [3,9,4,6,0,5,8,7,0],
    [5,6,3,0,4,0,9,8,7],
    [2,0,0,0,0,0,0,1,5],
    [0,1,0,0,5,0,0,2,0]
]
